PREC = normal

IBRION = 0
ISIF = 2
POTIM = 1.0

ISYM   = 0
EDIFF = 1e-4
NELM = 60
NELMIN = 4
ALGO = F
MAXMIX = 40

NPAR = 4
NSIM=4
LPLANE=T
LSCALU=F
NWRITE = 1

LREAL=Auto
NBLOCK = 1 
BLOCK = 20
APACO = 20.00

ISMEAR = -1
SIGMA = 0.344
TEBEG = 4000.0
TEEND = 4000.0
NSW = 80
SMASS = 0

