BCC  Ti
   1.50000000000000     
1 1 1
1 -1 1
1 1 -1
   1
Direct
0 0 0

